
Welcome to IBM(R) ILOG(R) CPLEX(R) Interactive Optimizer 22.1.1.0
  with Simplex, Mixed Integer & Barrier Optimizers
5725-A06 5725-A29 5724-Y48 5724-Y49 5724-Y54 5724-Y55 5655-Y21
Copyright IBM Corp. 1988, 2022.  All Rights Reserved.

Type 'help' for a list of available commands.
Type 'help' followed by a command name for more
information on commands.

CPLEX> Selected objective sense:  MINIMIZE
Selected objective  name:  00000000
Selected RHS        name:  RHS1
Selected bound      name:  BOUND
Problem 'ee.mps' read.
Read time = 0.02 sec. (3.17 ticks)
CPLEX> New value for time limit in seconds: 7200
CPLEX> New value for parallel optimization mode: -1
CPLEX> New value for default parallel thread count: 40
CPLEX> New value for mixed integer optimality gap tolerance: 1e-13
CPLEX> Version identifier: 22.1.1.0 | 2022-11-28 | 9160aff4d
CPXPARAM_Threads                                 40
CPXPARAM_Parallel                                -1
CPXPARAM_TimeLimit                               7200
CPXPARAM_MIP_Tolerances_MIPGap                   1e-13
Found incumbent of value 0.000000 after 0.00 sec. (0.31 ticks)
Tried aggregator 2 times.
MIP Presolve eliminated 180 rows and 2745 columns.
MIP Presolve modified 6090 coefficients.
Aggregator did 713 substitutions.
Reduced MIP has 3636 rows, 7835 columns, and 28932 nonzeros.
Reduced MIP has 7835 binaries, 0 generals, 0 SOSs, and 0 indicators.
Presolve time = 0.07 sec. (68.90 ticks)
Probing time = 0.03 sec. (5.78 ticks)
Tried aggregator 1 time.
Detecting symmetries...
Reduced MIP has 3636 rows, 7835 columns, and 28932 nonzeros.
Reduced MIP has 7835 binaries, 0 generals, 0 SOSs, and 0 indicators.
Presolve time = 0.02 sec. (21.98 ticks)
Probing time = 0.02 sec. (5.59 ticks)
Clique table members: 18782.
MIP emphasis: balance optimality and feasibility.
MIP search method: dynamic search.
Parallel mode: opportunistic, using up to 40 threads.
Root relaxation solution time = 0.09 sec. (70.81 ticks)

        Nodes                                         Cuts/
   Node  Left     Objective  IInf  Best Integer    Best Bound    ItCnt     Gap

*     0+    0                            0.0000  -1.54000e+13              --- 
*     0+    0                      -6.00000e+12  -1.54000e+13           156.67%
      0     0  -1.53900e+13   105  -6.00000e+12  -1.53900e+13     1966  156.50%
*     0+    0                      -1.53900e+13  -1.53900e+13             0.00%
      0     0  -1.53900e+13   258  -1.53900e+13      Cuts: 84     3495    0.00%
*     0+    0                      -1.53900e+13  -1.53900e+13             0.00%
      0     0  -1.53900e+13   200  -1.53900e+13     Cuts: 120     4736    0.00%
      0     0  -1.53900e+13   300  -1.53900e+13     Cuts: 114     5205    0.00%
*     0+    0                      -1.53900e+13  -1.53900e+13             0.00%
      0    29        cutoff        -1.53900e+13  -1.53900e+13    16784    0.00%
Elapsed time = 3.47 sec. (1985.80 ticks, tree = 0.02 MB, solutions = 6)
     81    25  -1.53900e+13   292  -1.53900e+13  -1.53900e+13    12387    0.00%
    143    68        cutoff        -1.53900e+13  -1.53900e+13    64032    0.00%
    243    81  -1.53900e+13   192  -1.53900e+13  -1.53900e+13    83732    0.00%
    476    83  -1.53900e+13   178  -1.53900e+13  -1.53900e+13    88181    0.00%
    739    84  -1.53900e+13   185  -1.53900e+13  -1.53900e+13    80010    0.00%
   1188   130  -1.53900e+13    78  -1.53900e+13  -1.53900e+13   226976    0.00%
   1740   111  -1.53900e+13   103  -1.53900e+13  -1.53900e+13   171537    0.00%
   2382   778        cutoff        -1.53900e+13  -1.53900e+13   468872    0.00%
   2992   129        cutoff        -1.53900e+13  -1.53900e+13   221781    0.00%
   5290   647  -1.53900e+13   165  -1.53900e+13  -1.53900e+13   437424    0.00%
Elapsed time = 9.21 sec. (5098.00 ticks, tree = 2.23 MB, solutions = 6)
   7183  2606        cutoff        -1.53900e+13  -1.53900e+13   839291    0.00%
  10270  1752        cutoff        -1.53900e+13  -1.53900e+13   715386    0.00%
  13259  2484  -1.53900e+13   189  -1.53900e+13  -1.53900e+13   827896    0.00%
  14756  3488  -1.53900e+13   161  -1.53900e+13  -1.53900e+13   978657    0.00%

Performing restart 1

Repeating presolve.
Tried aggregator 2 times.
MIP Presolve eliminated 29 rows and 26 columns.
MIP Presolve modified 1872 coefficients.
Aggregator did 7 substitutions.
Reduced MIP has 3524 rows, 7802 columns, and 28220 nonzeros.
Reduced MIP has 7802 binaries, 0 generals, 0 SOSs, and 0 indicators.
Presolve time = 0.05 sec. (39.70 ticks)
Tried aggregator 2 times.
MIP Presolve eliminated 15 rows and 39 columns.
MIP Presolve modified 24 coefficients.
Aggregator did 9 substitutions.
Reduced MIP has 3500 rows, 7748 columns, and 28022 nonzeros.
Reduced MIP has 7748 binaries, 0 generals, 0 SOSs, and 0 indicators.
Presolve time = 0.05 sec. (53.19 ticks)
Represolve time = 0.24 sec. (163.24 ticks)
  14763     0  -1.53900e+13   418  -1.53900e+13      Cuts: 50  1147324    0.00%
  14763     0  -1.53900e+13   306  -1.53900e+13      Cuts: 68  1147742    0.00%
  14763     0  -1.53900e+13   352  -1.53900e+13      Cuts: 53  1148111    0.00%
  14763     0  -1.53900e+13   399  -1.53900e+13      Cuts: 54  1148341    0.00%
  14763     0  -1.53900e+13   420  -1.53900e+13      Cuts: 46  1148503    0.00%
  14763    13        cutoff        -1.53900e+13  -1.53900e+13  1157311    0.00%
  16377   262  -1.53900e+13   114  -1.53900e+13  -1.53900e+13  1218751    0.00%
  19884   116  -1.53900e+13    69  -1.53900e+13  -1.53900e+13  1168416    0.00%
  22802    37        cutoff        -1.53900e+13  -1.53900e+13  1344557    0.00%

GUB cover cuts applied:  14
Clique cuts applied:  24
Cover cuts applied:  480
Flow cuts applied:  4
Mixed integer rounding cuts applied:  25
Zero-half cuts applied:  49
Lift and project cuts applied:  3
Gomory fractional cuts applied:  19

Root node processing (before b&c):
  Real time             =    2.30 sec. (1972.38 ticks)
Parallel b&c, 40 threads:
  Real time             =   21.35 sec. (13960.93 ticks)
  Sync time (average)   =    5.31 sec.
  Wait time (average)   =    0.08 sec.
                          ------------
Total (root+branch&cut) =   23.65 sec. (15933.31 ticks)

Solution pool: 6 solutions saved.

MIP - Integer optimal solution:  Objective = -1.5389999389e+13
Solution time =   23.78 sec.  Iterations = 1352923  Nodes = 23473
Deterministic time = 15933.34 ticks  (670.07 ticks/sec)

CPLEX> Solution 'p7' written to file 'ee.sol'.
CPLEX> 